c *********************************
c * Circuit generated by BenCGen
c *
c * Parity_179
c *
c * Ports with 1 gate(s): 1
c * Ports with 2 gate(s): 179
c * Total gates: 180
c *********************************
p cnf 359 717
1 182 0
-1 -182 0
1 -181 0
182 -181 0
-1 -182 181 0
1 2 -183 0
-1 2 183 0
1 -2 183 0
-1 -2 -183 0
3 4 -184 0
-3 4 184 0
3 -4 184 0
-3 -4 -184 0
5 6 -185 0
-5 6 185 0
5 -6 185 0
-5 -6 -185 0
7 8 -186 0
-7 8 186 0
7 -8 186 0
-7 -8 -186 0
9 10 -187 0
-9 10 187 0
9 -10 187 0
-9 -10 -187 0
11 12 -188 0
-11 12 188 0
11 -12 188 0
-11 -12 -188 0
13 14 -189 0
-13 14 189 0
13 -14 189 0
-13 -14 -189 0
15 16 -190 0
-15 16 190 0
15 -16 190 0
-15 -16 -190 0
17 18 -191 0
-17 18 191 0
17 -18 191 0
-17 -18 -191 0
19 20 -192 0
-19 20 192 0
19 -20 192 0
-19 -20 -192 0
21 22 -193 0
-21 22 193 0
21 -22 193 0
-21 -22 -193 0
23 24 -194 0
-23 24 194 0
23 -24 194 0
-23 -24 -194 0
25 26 -195 0
-25 26 195 0
25 -26 195 0
-25 -26 -195 0
27 28 -196 0
-27 28 196 0
27 -28 196 0
-27 -28 -196 0
29 30 -197 0
-29 30 197 0
29 -30 197 0
-29 -30 -197 0
31 32 -198 0
-31 32 198 0
31 -32 198 0
-31 -32 -198 0
33 34 -199 0
-33 34 199 0
33 -34 199 0
-33 -34 -199 0
35 36 -200 0
-35 36 200 0
35 -36 200 0
-35 -36 -200 0
37 38 -201 0
-37 38 201 0
37 -38 201 0
-37 -38 -201 0
39 40 -202 0
-39 40 202 0
39 -40 202 0
-39 -40 -202 0
41 42 -203 0
-41 42 203 0
41 -42 203 0
-41 -42 -203 0
43 44 -204 0
-43 44 204 0
43 -44 204 0
-43 -44 -204 0
45 46 -205 0
-45 46 205 0
45 -46 205 0
-45 -46 -205 0
47 48 -206 0
-47 48 206 0
47 -48 206 0
-47 -48 -206 0
49 50 -207 0
-49 50 207 0
49 -50 207 0
-49 -50 -207 0
51 52 -208 0
-51 52 208 0
51 -52 208 0
-51 -52 -208 0
53 54 -209 0
-53 54 209 0
53 -54 209 0
-53 -54 -209 0
55 56 -210 0
-55 56 210 0
55 -56 210 0
-55 -56 -210 0
57 58 -211 0
-57 58 211 0
57 -58 211 0
-57 -58 -211 0
59 60 -212 0
-59 60 212 0
59 -60 212 0
-59 -60 -212 0
61 62 -213 0
-61 62 213 0
61 -62 213 0
-61 -62 -213 0
63 64 -214 0
-63 64 214 0
63 -64 214 0
-63 -64 -214 0
65 66 -215 0
-65 66 215 0
65 -66 215 0
-65 -66 -215 0
67 68 -216 0
-67 68 216 0
67 -68 216 0
-67 -68 -216 0
69 70 -217 0
-69 70 217 0
69 -70 217 0
-69 -70 -217 0
71 72 -218 0
-71 72 218 0
71 -72 218 0
-71 -72 -218 0
73 74 -219 0
-73 74 219 0
73 -74 219 0
-73 -74 -219 0
75 76 -220 0
-75 76 220 0
75 -76 220 0
-75 -76 -220 0
77 78 -221 0
-77 78 221 0
77 -78 221 0
-77 -78 -221 0
79 80 -222 0
-79 80 222 0
79 -80 222 0
-79 -80 -222 0
81 82 -223 0
-81 82 223 0
81 -82 223 0
-81 -82 -223 0
83 84 -224 0
-83 84 224 0
83 -84 224 0
-83 -84 -224 0
85 86 -225 0
-85 86 225 0
85 -86 225 0
-85 -86 -225 0
87 88 -226 0
-87 88 226 0
87 -88 226 0
-87 -88 -226 0
89 90 -227 0
-89 90 227 0
89 -90 227 0
-89 -90 -227 0
91 92 -228 0
-91 92 228 0
91 -92 228 0
-91 -92 -228 0
93 94 -229 0
-93 94 229 0
93 -94 229 0
-93 -94 -229 0
95 96 -230 0
-95 96 230 0
95 -96 230 0
-95 -96 -230 0
97 98 -231 0
-97 98 231 0
97 -98 231 0
-97 -98 -231 0
99 100 -232 0
-99 100 232 0
99 -100 232 0
-99 -100 -232 0
101 102 -233 0
-101 102 233 0
101 -102 233 0
-101 -102 -233 0
103 104 -234 0
-103 104 234 0
103 -104 234 0
-103 -104 -234 0
105 106 -235 0
-105 106 235 0
105 -106 235 0
-105 -106 -235 0
107 108 -236 0
-107 108 236 0
107 -108 236 0
-107 -108 -236 0
109 110 -237 0
-109 110 237 0
109 -110 237 0
-109 -110 -237 0
111 112 -238 0
-111 112 238 0
111 -112 238 0
-111 -112 -238 0
113 114 -239 0
-113 114 239 0
113 -114 239 0
-113 -114 -239 0
115 116 -240 0
-115 116 240 0
115 -116 240 0
-115 -116 -240 0
117 118 -241 0
-117 118 241 0
117 -118 241 0
-117 -118 -241 0
119 120 -242 0
-119 120 242 0
119 -120 242 0
-119 -120 -242 0
121 122 -243 0
-121 122 243 0
121 -122 243 0
-121 -122 -243 0
123 124 -244 0
-123 124 244 0
123 -124 244 0
-123 -124 -244 0
125 126 -245 0
-125 126 245 0
125 -126 245 0
-125 -126 -245 0
127 128 -246 0
-127 128 246 0
127 -128 246 0
-127 -128 -246 0
129 130 -247 0
-129 130 247 0
129 -130 247 0
-129 -130 -247 0
131 132 -248 0
-131 132 248 0
131 -132 248 0
-131 -132 -248 0
133 134 -249 0
-133 134 249 0
133 -134 249 0
-133 -134 -249 0
135 136 -250 0
-135 136 250 0
135 -136 250 0
-135 -136 -250 0
137 138 -251 0
-137 138 251 0
137 -138 251 0
-137 -138 -251 0
139 140 -252 0
-139 140 252 0
139 -140 252 0
-139 -140 -252 0
141 142 -253 0
-141 142 253 0
141 -142 253 0
-141 -142 -253 0
143 144 -254 0
-143 144 254 0
143 -144 254 0
-143 -144 -254 0
145 146 -255 0
-145 146 255 0
145 -146 255 0
-145 -146 -255 0
147 148 -256 0
-147 148 256 0
147 -148 256 0
-147 -148 -256 0
149 150 -257 0
-149 150 257 0
149 -150 257 0
-149 -150 -257 0
151 152 -258 0
-151 152 258 0
151 -152 258 0
-151 -152 -258 0
153 154 -259 0
-153 154 259 0
153 -154 259 0
-153 -154 -259 0
155 156 -260 0
-155 156 260 0
155 -156 260 0
-155 -156 -260 0
157 158 -261 0
-157 158 261 0
157 -158 261 0
-157 -158 -261 0
159 160 -262 0
-159 160 262 0
159 -160 262 0
-159 -160 -262 0
161 162 -263 0
-161 162 263 0
161 -162 263 0
-161 -162 -263 0
163 164 -264 0
-163 164 264 0
163 -164 264 0
-163 -164 -264 0
165 166 -265 0
-165 166 265 0
165 -166 265 0
-165 -166 -265 0
167 168 -266 0
-167 168 266 0
167 -168 266 0
-167 -168 -266 0
169 170 -267 0
-169 170 267 0
169 -170 267 0
-169 -170 -267 0
171 172 -268 0
-171 172 268 0
171 -172 268 0
-171 -172 -268 0
173 174 -269 0
-173 174 269 0
173 -174 269 0
-173 -174 -269 0
175 176 -270 0
-175 176 270 0
175 -176 270 0
-175 -176 -270 0
177 178 -271 0
-177 178 271 0
177 -178 271 0
-177 -178 -271 0
183 184 -272 0
-183 184 272 0
183 -184 272 0
-183 -184 -272 0
185 186 -273 0
-185 186 273 0
185 -186 273 0
-185 -186 -273 0
187 188 -274 0
-187 188 274 0
187 -188 274 0
-187 -188 -274 0
189 190 -275 0
-189 190 275 0
189 -190 275 0
-189 -190 -275 0
191 192 -276 0
-191 192 276 0
191 -192 276 0
-191 -192 -276 0
193 194 -277 0
-193 194 277 0
193 -194 277 0
-193 -194 -277 0
195 196 -278 0
-195 196 278 0
195 -196 278 0
-195 -196 -278 0
197 198 -279 0
-197 198 279 0
197 -198 279 0
-197 -198 -279 0
199 200 -280 0
-199 200 280 0
199 -200 280 0
-199 -200 -280 0
201 202 -281 0
-201 202 281 0
201 -202 281 0
-201 -202 -281 0
203 204 -282 0
-203 204 282 0
203 -204 282 0
-203 -204 -282 0
205 206 -283 0
-205 206 283 0
205 -206 283 0
-205 -206 -283 0
207 208 -284 0
-207 208 284 0
207 -208 284 0
-207 -208 -284 0
209 210 -285 0
-209 210 285 0
209 -210 285 0
-209 -210 -285 0
211 212 -286 0
-211 212 286 0
211 -212 286 0
-211 -212 -286 0
213 214 -287 0
-213 214 287 0
213 -214 287 0
-213 -214 -287 0
215 216 -288 0
-215 216 288 0
215 -216 288 0
-215 -216 -288 0
217 218 -289 0
-217 218 289 0
217 -218 289 0
-217 -218 -289 0
219 220 -290 0
-219 220 290 0
219 -220 290 0
-219 -220 -290 0
221 222 -291 0
-221 222 291 0
221 -222 291 0
-221 -222 -291 0
223 224 -292 0
-223 224 292 0
223 -224 292 0
-223 -224 -292 0
225 226 -293 0
-225 226 293 0
225 -226 293 0
-225 -226 -293 0
227 228 -294 0
-227 228 294 0
227 -228 294 0
-227 -228 -294 0
229 230 -295 0
-229 230 295 0
229 -230 295 0
-229 -230 -295 0
231 232 -296 0
-231 232 296 0
231 -232 296 0
-231 -232 -296 0
233 234 -297 0
-233 234 297 0
233 -234 297 0
-233 -234 -297 0
235 236 -298 0
-235 236 298 0
235 -236 298 0
-235 -236 -298 0
237 238 -299 0
-237 238 299 0
237 -238 299 0
-237 -238 -299 0
239 240 -300 0
-239 240 300 0
239 -240 300 0
-239 -240 -300 0
241 242 -301 0
-241 242 301 0
241 -242 301 0
-241 -242 -301 0
243 244 -302 0
-243 244 302 0
243 -244 302 0
-243 -244 -302 0
245 246 -303 0
-245 246 303 0
245 -246 303 0
-245 -246 -303 0
247 248 -304 0
-247 248 304 0
247 -248 304 0
-247 -248 -304 0
249 250 -305 0
-249 250 305 0
249 -250 305 0
-249 -250 -305 0
251 252 -306 0
-251 252 306 0
251 -252 306 0
-251 -252 -306 0
253 254 -307 0
-253 254 307 0
253 -254 307 0
-253 -254 -307 0
255 256 -308 0
-255 256 308 0
255 -256 308 0
-255 -256 -308 0
257 258 -309 0
-257 258 309 0
257 -258 309 0
-257 -258 -309 0
259 260 -310 0
-259 260 310 0
259 -260 310 0
-259 -260 -310 0
261 262 -311 0
-261 262 311 0
261 -262 311 0
-261 -262 -311 0
263 264 -312 0
-263 264 312 0
263 -264 312 0
-263 -264 -312 0
265 266 -313 0
-265 266 313 0
265 -266 313 0
-265 -266 -313 0
267 268 -314 0
-267 268 314 0
267 -268 314 0
-267 -268 -314 0
269 270 -315 0
-269 270 315 0
269 -270 315 0
-269 -270 -315 0
271 179 -316 0
-271 179 316 0
271 -179 316 0
-271 -179 -316 0
272 273 -317 0
-272 273 317 0
272 -273 317 0
-272 -273 -317 0
274 275 -318 0
-274 275 318 0
274 -275 318 0
-274 -275 -318 0
276 277 -319 0
-276 277 319 0
276 -277 319 0
-276 -277 -319 0
278 279 -320 0
-278 279 320 0
278 -279 320 0
-278 -279 -320 0
280 281 -321 0
-280 281 321 0
280 -281 321 0
-280 -281 -321 0
282 283 -322 0
-282 283 322 0
282 -283 322 0
-282 -283 -322 0
284 285 -323 0
-284 285 323 0
284 -285 323 0
-284 -285 -323 0
286 287 -324 0
-286 287 324 0
286 -287 324 0
-286 -287 -324 0
288 289 -325 0
-288 289 325 0
288 -289 325 0
-288 -289 -325 0
290 291 -326 0
-290 291 326 0
290 -291 326 0
-290 -291 -326 0
292 293 -327 0
-292 293 327 0
292 -293 327 0
-292 -293 -327 0
294 295 -328 0
-294 295 328 0
294 -295 328 0
-294 -295 -328 0
296 297 -329 0
-296 297 329 0
296 -297 329 0
-296 -297 -329 0
298 299 -330 0
-298 299 330 0
298 -299 330 0
-298 -299 -330 0
300 301 -331 0
-300 301 331 0
300 -301 331 0
-300 -301 -331 0
302 303 -332 0
-302 303 332 0
302 -303 332 0
-302 -303 -332 0
304 305 -333 0
-304 305 333 0
304 -305 333 0
-304 -305 -333 0
306 307 -334 0
-306 307 334 0
306 -307 334 0
-306 -307 -334 0
308 309 -335 0
-308 309 335 0
308 -309 335 0
-308 -309 -335 0
310 311 -336 0
-310 311 336 0
310 -311 336 0
-310 -311 -336 0
312 313 -337 0
-312 313 337 0
312 -313 337 0
-312 -313 -337 0
314 315 -338 0
-314 315 338 0
314 -315 338 0
-314 -315 -338 0
317 318 -339 0
-317 318 339 0
317 -318 339 0
-317 -318 -339 0
319 320 -340 0
-319 320 340 0
319 -320 340 0
-319 -320 -340 0
321 322 -341 0
-321 322 341 0
321 -322 341 0
-321 -322 -341 0
323 324 -342 0
-323 324 342 0
323 -324 342 0
-323 -324 -342 0
325 326 -343 0
-325 326 343 0
325 -326 343 0
-325 -326 -343 0
327 328 -344 0
-327 328 344 0
327 -328 344 0
-327 -328 -344 0
329 330 -345 0
-329 330 345 0
329 -330 345 0
-329 -330 -345 0
331 332 -346 0
-331 332 346 0
331 -332 346 0
-331 -332 -346 0
333 334 -347 0
-333 334 347 0
333 -334 347 0
-333 -334 -347 0
335 336 -348 0
-335 336 348 0
335 -336 348 0
-335 -336 -348 0
337 338 -349 0
-337 338 349 0
337 -338 349 0
-337 -338 -349 0
339 340 -350 0
-339 340 350 0
339 -340 350 0
-339 -340 -350 0
341 342 -351 0
-341 342 351 0
341 -342 351 0
-341 -342 -351 0
343 344 -352 0
-343 344 352 0
343 -344 352 0
-343 -344 -352 0
345 346 -353 0
-345 346 353 0
345 -346 353 0
-345 -346 -353 0
347 348 -354 0
-347 348 354 0
347 -348 354 0
-347 -348 -354 0
349 316 -355 0
-349 316 355 0
349 -316 355 0
-349 -316 -355 0
350 351 -356 0
-350 351 356 0
350 -351 356 0
-350 -351 -356 0
352 353 -357 0
-352 353 357 0
352 -353 357 0
-352 -353 -357 0
354 355 -358 0
-354 355 358 0
354 -355 358 0
-354 -355 -358 0
356 357 -359 0
-356 357 359 0
356 -357 359 0
-356 -357 -359 0
359 358 -180 0
-359 358 180 0
359 -358 180 0
-359 -358 -180 0
